p cnf 126 541
1 2 3 4 0
-1 37 0
-2 37 0
-1 -2 38 0
-3 39 0
-4 39 0
-3 -4 40 0
-37 41 0
-39 41 0
-37 -39 42 0
-38 43 0
-40 43 0
-38 -40 44 0
-42 45 0
-43 45 0
-42 -43 46 0
-45 0
13 14 15 16 0
-13 47 0
-14 47 0
-13 -14 48 0
-15 49 0
-16 49 0
-15 -16 50 0
-47 51 0
-49 51 0
-47 -49 52 0
-48 53 0
-50 53 0
-48 -50 54 0
-52 55 0
-53 55 0
-52 -53 56 0
-55 0
25 26 27 28 0
-25 57 0
-26 57 0
-25 -26 58 0
-27 59 0
-28 59 0
-27 -28 60 0
-57 61 0
-59 61 0
-57 -59 62 0
-58 63 0
-60 63 0
-58 -60 64 0
-62 65 0
-63 65 0
-62 -63 66 0
-65 0
5 6 7 8 0
-5 67 0
-6 67 0
-5 -6 68 0
-7 69 0
-8 69 0
-7 -8 70 0
-67 71 0
-69 71 0
-67 -69 72 0
-68 73 0
-70 73 0
-68 -70 74 0
-72 75 0
-73 75 0
-72 -73 76 0
-75 0
17 18 19 20 0
-17 77 0
-18 77 0
-17 -18 78 0
-19 79 0
-20 79 0
-19 -20 80 0
-77 81 0
-79 81 0
-77 -79 82 0
-78 83 0
-80 83 0
-78 -80 84 0
-82 85 0
-83 85 0
-82 -83 86 0
-85 0
29 30 31 32 0
-29 87 0
-30 87 0
-29 -30 88 0
-31 89 0
-32 89 0
-31 -32 90 0
-87 91 0
-89 91 0
-87 -89 92 0
-88 93 0
-90 93 0
-88 -90 94 0
-92 95 0
-93 95 0
-92 -93 96 0
-95 0
9 10 11 12 0
-9 97 0
-10 97 0
-9 -10 98 0
-11 99 0
-12 99 0
-11 -12 100 0
-97 101 0
-99 101 0
-97 -99 102 0
-98 103 0
-100 103 0
-98 -100 104 0
-102 105 0
-103 105 0
-102 -103 106 0
-105 0
21 22 23 24 0
-21 107 0
-22 107 0
-21 -22 108 0
-23 109 0
-24 109 0
-23 -24 110 0
-107 111 0
-109 111 0
-107 -109 112 0
-108 113 0
-110 113 0
-108 -110 114 0
-112 115 0
-113 115 0
-112 -113 116 0
-115 0
33 34 35 36 0
-33 117 0
-34 117 0
-33 -34 118 0
-35 119 0
-36 119 0
-35 -36 120 0
-117 121 0
-119 121 0
-117 -119 122 0
-118 123 0
-120 123 0
-118 -120 124 0
-122 125 0
-123 125 0
-122 -123 126 0
-125 0
-1 -13 -25 6 0
-1 -14 -25 6 0
-1 -15 -25 6 0
-1 -16 -25 6 0
-1 -13 -26 6 0
-1 -14 -26 6 0
-1 -15 -26 6 0
-1 -16 -26 6 0
-1 -13 -27 6 0
-1 -14 -27 6 0
-1 -15 -27 6 0
-1 -16 -27 6 0
-1 -13 -28 6 0
-1 -14 -28 6 0
-1 -15 -28 6 0
-1 -16 -28 6 0
-2 -13 -25 6 0
-2 -14 -25 6 0
-2 -15 -25 6 0
-2 -16 -25 6 0
-2 -13 -26 6 0
-2 -14 -26 7 0
-2 -15 -26 7 0
-2 -16 -26 7 0
-2 -13 -27 6 0
-2 -14 -27 7 0
-2 -15 -27 7 0
-2 -16 -27 7 0
-2 -13 -28 6 0
-2 -14 -28 7 0
-2 -15 -28 7 0
-2 -16 -28 7 0
-3 -13 -25 6 0
-3 -14 -25 6 0
-3 -15 -25 6 0
-3 -16 -25 6 0
-3 -13 -26 6 0
-3 -14 -26 7 0
-3 -15 -26 7 0
-3 -16 -26 7 0
-3 -13 -27 6 0
-3 -14 -27 7 0
-3 -15 -27 8 0
-3 -16 -27 8 0
-3 -13 -28 6 0
-3 -14 -28 7 0
-3 -15 -28 8 0
-3 -16 -28 8 0
-4 -13 -25 6 0
-4 -14 -25 6 0
-4 -15 -25 6 0
-4 -16 -25 6 0
-4 -13 -26 6 0
-4 -14 -26 7 0
-4 -15 -26 7 0
-4 -16 -26 7 0
-4 -13 -27 6 0
-4 -14 -27 7 0
-4 -15 -27 8 0
-4 -16 -27 8 0
-4 -13 -28 6 0
-4 -14 -28 7 0
-4 -15 -28 8 0
-4 -16 -28 5 0
-13 -1 -25 18 0
-13 -2 -25 18 0
-13 -3 -25 18 0
-13 -4 -25 18 0
-13 -1 -26 18 0
-13 -2 -26 18 0
-13 -3 -26 18 0
-13 -4 -26 18 0
-13 -1 -27 18 0
-13 -2 -27 18 0
-13 -3 -27 18 0
-13 -4 -27 18 0
-13 -1 -28 18 0
-13 -2 -28 18 0
-13 -3 -28 18 0
-13 -4 -28 18 0
-14 -1 -25 18 0
-14 -2 -25 18 0
-14 -3 -25 18 0
-14 -4 -25 18 0
-14 -1 -26 18 0
-14 -2 -26 19 0
-14 -3 -26 19 0
-14 -4 -26 19 0
-14 -1 -27 18 0
-14 -2 -27 19 0
-14 -3 -27 19 0
-14 -4 -27 19 0
-14 -1 -28 18 0
-14 -2 -28 19 0
-14 -3 -28 19 0
-14 -4 -28 19 0
-15 -1 -25 18 0
-15 -2 -25 18 0
-15 -3 -25 18 0
-15 -4 -25 18 0
-15 -1 -26 18 0
-15 -2 -26 19 0
-15 -3 -26 19 0
-15 -4 -26 19 0
-15 -1 -27 18 0
-15 -2 -27 19 0
-15 -3 -27 20 0
-15 -4 -27 20 0
-15 -1 -28 18 0
-15 -2 -28 19 0
-15 -3 -28 20 0
-15 -4 -28 20 0
-16 -1 -25 18 0
-16 -2 -25 18 0
-16 -3 -25 18 0
-16 -4 -25 18 0
-16 -1 -26 18 0
-16 -2 -26 19 0
-16 -3 -26 19 0
-16 -4 -26 19 0
-16 -1 -27 18 0
-16 -2 -27 19 0
-16 -3 -27 20 0
-16 -4 -27 20 0
-16 -1 -28 18 0
-16 -2 -28 19 0
-16 -3 -28 20 0
-16 -4 -28 17 0
-25 -1 -13 30 0
-25 -2 -13 30 0
-25 -3 -13 30 0
-25 -4 -13 30 0
-25 -1 -14 30 0
-25 -2 -14 30 0
-25 -3 -14 30 0
-25 -4 -14 30 0
-25 -1 -15 30 0
-25 -2 -15 30 0
-25 -3 -15 30 0
-25 -4 -15 30 0
-25 -1 -16 30 0
-25 -2 -16 30 0
-25 -3 -16 30 0
-25 -4 -16 30 0
-26 -1 -13 30 0
-26 -2 -13 30 0
-26 -3 -13 30 0
-26 -4 -13 30 0
-26 -1 -14 30 0
-26 -2 -14 31 0
-26 -3 -14 31 0
-26 -4 -14 31 0
-26 -1 -15 30 0
-26 -2 -15 31 0
-26 -3 -15 31 0
-26 -4 -15 31 0
-26 -1 -16 30 0
-26 -2 -16 31 0
-26 -3 -16 31 0
-26 -4 -16 31 0
-27 -1 -13 30 0
-27 -2 -13 30 0
-27 -3 -13 30 0
-27 -4 -13 30 0
-27 -1 -14 30 0
-27 -2 -14 31 0
-27 -3 -14 31 0
-27 -4 -14 31 0
-27 -1 -15 30 0
-27 -2 -15 31 0
-27 -3 -15 32 0
-27 -4 -15 32 0
-27 -1 -16 30 0
-27 -2 -16 31 0
-27 -3 -16 32 0
-27 -4 -16 32 0
-28 -1 -13 30 0
-28 -2 -13 30 0
-28 -3 -13 30 0
-28 -4 -13 30 0
-28 -1 -14 30 0
-28 -2 -14 31 0
-28 -3 -14 31 0
-28 -4 -14 31 0
-28 -1 -15 30 0
-28 -2 -15 31 0
-28 -3 -15 32 0
-28 -4 -15 32 0
-28 -1 -16 30 0
-28 -2 -16 31 0
-28 -3 -16 32 0
-28 -4 -16 29 0
-5 -17 -29 10 0
-5 -18 -29 10 0
-5 -19 -29 10 0
-5 -20 -29 10 0
-5 -17 -30 10 0
-5 -18 -30 10 0
-5 -19 -30 10 0
-5 -20 -30 10 0
-5 -17 -31 10 0
-5 -18 -31 10 0
-5 -19 -31 10 0
-5 -20 -31 10 0
-5 -17 -32 10 0
-5 -18 -32 10 0
-5 -19 -32 10 0
-5 -20 -32 10 0
-6 -17 -29 10 0
-6 -18 -29 10 0
-6 -19 -29 10 0
-6 -20 -29 10 0
-6 -17 -30 10 0
-6 -18 -30 11 0
-6 -19 -30 11 0
-6 -20 -30 11 0
-6 -17 -31 10 0
-6 -18 -31 11 0
-6 -19 -31 11 0
-6 -20 -31 11 0
-6 -17 -32 10 0
-6 -18 -32 11 0
-6 -19 -32 11 0
-6 -20 -32 11 0
-7 -17 -29 10 0
-7 -18 -29 10 0
-7 -19 -29 10 0
-7 -20 -29 10 0
-7 -17 -30 10 0
-7 -18 -30 11 0
-7 -19 -30 11 0
-7 -20 -30 11 0
-7 -17 -31 10 0
-7 -18 -31 11 0
-7 -19 -31 12 0
-7 -20 -31 12 0
-7 -17 -32 10 0
-7 -18 -32 11 0
-7 -19 -32 12 0
-7 -20 -32 12 0
-8 -17 -29 10 0
-8 -18 -29 10 0
-8 -19 -29 10 0
-8 -20 -29 10 0
-8 -17 -30 10 0
-8 -18 -30 11 0
-8 -19 -30 11 0
-8 -20 -30 11 0
-8 -17 -31 10 0
-8 -18 -31 11 0
-8 -19 -31 12 0
-8 -20 -31 12 0
-8 -17 -32 10 0
-8 -18 -32 11 0
-8 -19 -32 12 0
-8 -20 -32 9 0
-17 -5 -29 22 0
-17 -6 -29 22 0
-17 -7 -29 22 0
-17 -8 -29 22 0
-17 -5 -30 22 0
-17 -6 -30 22 0
-17 -7 -30 22 0
-17 -8 -30 22 0
-17 -5 -31 22 0
-17 -6 -31 22 0
-17 -7 -31 22 0
-17 -8 -31 22 0
-17 -5 -32 22 0
-17 -6 -32 22 0
-17 -7 -32 22 0
-17 -8 -32 22 0
-18 -5 -29 22 0
-18 -6 -29 22 0
-18 -7 -29 22 0
-18 -8 -29 22 0
-18 -5 -30 22 0
-18 -6 -30 23 0
-18 -7 -30 23 0
-18 -8 -30 23 0
-18 -5 -31 22 0
-18 -6 -31 23 0
-18 -7 -31 23 0
-18 -8 -31 23 0
-18 -5 -32 22 0
-18 -6 -32 23 0
-18 -7 -32 23 0
-18 -8 -32 23 0
-19 -5 -29 22 0
-19 -6 -29 22 0
-19 -7 -29 22 0
-19 -8 -29 22 0
-19 -5 -30 22 0
-19 -6 -30 23 0
-19 -7 -30 23 0
-19 -8 -30 23 0
-19 -5 -31 22 0
-19 -6 -31 23 0
-19 -7 -31 24 0
-19 -8 -31 24 0
-19 -5 -32 22 0
-19 -6 -32 23 0
-19 -7 -32 24 0
-19 -8 -32 24 0
-20 -5 -29 22 0
-20 -6 -29 22 0
-20 -7 -29 22 0
-20 -8 -29 22 0
-20 -5 -30 22 0
-20 -6 -30 23 0
-20 -7 -30 23 0
-20 -8 -30 23 0
-20 -5 -31 22 0
-20 -6 -31 23 0
-20 -7 -31 24 0
-20 -8 -31 24 0
-20 -5 -32 22 0
-20 -6 -32 23 0
-20 -7 -32 24 0
-20 -8 -32 21 0
-29 -5 -17 34 0
-29 -6 -17 34 0
-29 -7 -17 34 0
-29 -8 -17 34 0
-29 -5 -18 34 0
-29 -6 -18 34 0
-29 -7 -18 34 0
-29 -8 -18 34 0
-29 -5 -19 34 0
-29 -6 -19 34 0
-29 -7 -19 34 0
-29 -8 -19 34 0
-29 -5 -20 34 0
-29 -6 -20 34 0
-29 -7 -20 34 0
-29 -8 -20 34 0
-30 -5 -17 34 0
-30 -6 -17 34 0
-30 -7 -17 34 0
-30 -8 -17 34 0
-30 -5 -18 34 0
-30 -6 -18 35 0
-30 -7 -18 35 0
-30 -8 -18 35 0
-30 -5 -19 34 0
-30 -6 -19 35 0
-30 -7 -19 35 0
-30 -8 -19 35 0
-30 -5 -20 34 0
-30 -6 -20 35 0
-30 -7 -20 35 0
-30 -8 -20 35 0
-31 -5 -17 34 0
-31 -6 -17 34 0
-31 -7 -17 34 0
-31 -8 -17 34 0
-31 -5 -18 34 0
-31 -6 -18 35 0
-31 -7 -18 35 0
-31 -8 -18 35 0
-31 -5 -19 34 0
-31 -6 -19 35 0
-31 -7 -19 36 0
-31 -8 -19 36 0
-31 -5 -20 34 0
-31 -6 -20 35 0
-31 -7 -20 36 0
-31 -8 -20 36 0
-32 -5 -17 34 0
-32 -6 -17 34 0
-32 -7 -17 34 0
-32 -8 -17 34 0
-32 -5 -18 34 0
-32 -6 -18 35 0
-32 -7 -18 35 0
-32 -8 -18 35 0
-32 -5 -19 34 0
-32 -6 -19 35 0
-32 -7 -19 36 0
-32 -8 -19 36 0
-32 -5 -20 34 0
-32 -6 -20 35 0
-32 -7 -20 36 0
-32 -8 -20 33 0
-9 -21 -33 0
-10 -22 -34 0
-11 -23 -35 0
-12 -24 -36 0
